predicate int_eq_imp(var int: a,var int: b,var bool: r);
array [1..5] of int: X_INTRODUCED_117_ = [1,1,1,1,1];
array [1..2] of int: X_INTRODUCED_120_ = [1,-20];
array [1..2] of int: X_INTRODUCED_123_ = [1,-24];
array [1..2] of int: X_INTRODUCED_126_ = [1,-11];
array [1..2] of int: X_INTRODUCED_129_ = [1,-25];
array [1..2] of int: X_INTRODUCED_132_ = [1,-30];
array [1..2] of int: X_INTRODUCED_146_ = [1,-28];
array [1..2] of int: X_INTRODUCED_149_ = [1,-27];
array [1..2] of int: X_INTRODUCED_152_ = [1,-82];
array [1..2] of int: X_INTRODUCED_155_ = [1,-83];
array [1..2] of int: X_INTRODUCED_158_ = [1,-74];
array [1..2] of int: X_INTRODUCED_173_ = [1,-97];
array [1..2] of int: X_INTRODUCED_176_ = [1,-71];
array [1..2] of int: X_INTRODUCED_179_ = [1,-96];
array [1..2] of int: X_INTRODUCED_182_ = [1,-70];
array [1..2] of int: X_INTRODUCED_196_ = [1,-2];
array [1..2] of int: X_INTRODUCED_199_ = [1,-55];
array [1..2] of int: X_INTRODUCED_202_ = [1,-73];
array [1..2] of int: X_INTRODUCED_205_ = [1,-69];
array [1..2] of int: X_INTRODUCED_208_ = [1,-61];
array [1..2] of int: X_INTRODUCED_222_ = [1,-46];
array [1..2] of int: X_INTRODUCED_226_ = [1,-59];
array [1..2] of int: X_INTRODUCED_230_ = [1,-4];
array [1..2] of int: X_INTRODUCED_244_ = [1,-42];
array [1..2] of int: X_INTRODUCED_247_ = [1,-22];
array [1..2] of int: X_INTRODUCED_250_ = [1,-29];
array [1..2] of int: X_INTRODUCED_253_ = [1,-67];
array [1..2] of int: X_INTRODUCED_268_ = [1,-5];
array [1..2] of int: X_INTRODUCED_273_ = [1,-56];
array [1..2] of int: X_INTRODUCED_287_ = [1,-10];
array [1..2] of int: X_INTRODUCED_291_ = [1,-13];
array [1..2] of int: X_INTRODUCED_294_ = [1,-43];
array [1..2] of int: X_INTRODUCED_309_ = [1,-93];
array [1..2] of int: X_INTRODUCED_312_ = [1,-35];
array [1..2] of int: X_INTRODUCED_315_ = [1,-63];
array [1..2] of int: X_INTRODUCED_318_ = [1,-85];
array [1..2] of int: X_INTRODUCED_333_ = [1,-47];
array [1..2] of int: X_INTRODUCED_336_ = [1,-65];
array [1..2] of int: X_INTRODUCED_341_ = [1,-95];
array [1..10] of int: X_INTRODUCED_343_ = [1,1,1,1,1,1,1,1,1,1];
array [1..56] of int: X_INTRODUCED_384_ = [1,-1,-1,-1,-1,-1,-1,-1,-1,-1,-1,-1,-1,-1,-1,-1,-1,-1,-1,-1,-1,-1,-1,-1,-1,-1,-1,-1,-1,-1,-1,-1,-1,-1,-1,-1,-1,-1,-1,-1,-1,-1,-1,-1,-1,-1,-1,-1,-1,-1,-1,-1,-1,-1,-1,-1];
var 0..30: X_INTRODUCED_0_;
var 0..30: X_INTRODUCED_1_;
var 0..30: X_INTRODUCED_2_;
var 0..30: X_INTRODUCED_3_;
var 0..30: X_INTRODUCED_4_;
var 0..1: X_INTRODUCED_5_;
var 0..1: X_INTRODUCED_6_;
var 0..1: X_INTRODUCED_7_;
var 0..1: X_INTRODUCED_8_;
var 0..1: X_INTRODUCED_9_;
var 0..1: X_INTRODUCED_10_;
var 0..1: X_INTRODUCED_11_;
var 0..1: X_INTRODUCED_12_;
var 0..1: X_INTRODUCED_13_;
var 0..1: X_INTRODUCED_14_;
var 0..1: X_INTRODUCED_15_;
var 0..1: X_INTRODUCED_16_;
var 0..1: X_INTRODUCED_17_;
var 0..1: X_INTRODUCED_18_;
var 0..1: X_INTRODUCED_19_;
var 0..1: X_INTRODUCED_20_;
var 0..1: X_INTRODUCED_21_;
var 0..1: X_INTRODUCED_22_;
var 0..1: X_INTRODUCED_23_;
var 0..1: X_INTRODUCED_24_;
var 0..1: X_INTRODUCED_25_;
var 0..1: X_INTRODUCED_26_;
var 0..1: X_INTRODUCED_27_;
var 0..1: X_INTRODUCED_28_;
var 0..1: X_INTRODUCED_29_;
var 0..1: X_INTRODUCED_30_;
var 0..1: X_INTRODUCED_31_;
var 0..1: X_INTRODUCED_32_;
var 0..1: X_INTRODUCED_33_;
var 0..1: X_INTRODUCED_34_;
var 0..1: X_INTRODUCED_35_;
var 0..1: X_INTRODUCED_36_;
var 0..1: X_INTRODUCED_37_;
var 0..1: X_INTRODUCED_38_;
var 0..1: X_INTRODUCED_39_;
var 0..1: X_INTRODUCED_40_;
var 0..1: X_INTRODUCED_41_;
var 0..1: X_INTRODUCED_42_;
var 0..1: X_INTRODUCED_43_;
var 0..1: X_INTRODUCED_44_;
var 0..1: X_INTRODUCED_45_;
var 0..1: X_INTRODUCED_46_;
var 0..1: X_INTRODUCED_47_;
var 0..1: X_INTRODUCED_48_;
var 0..1: X_INTRODUCED_49_;
var 0..1: X_INTRODUCED_50_;
var 0..1: X_INTRODUCED_51_;
var 0..1: X_INTRODUCED_52_;
var 0..1: X_INTRODUCED_53_;
var 0..1: X_INTRODUCED_54_;
var 0..20: X_INTRODUCED_55_:: is_defined_var;
var 0..24: X_INTRODUCED_56_:: is_defined_var;
var 0..11: X_INTRODUCED_57_:: is_defined_var;
var 0..25: X_INTRODUCED_58_:: is_defined_var;
var 0..30: X_INTRODUCED_59_:: is_defined_var;
var 0..28: X_INTRODUCED_60_:: is_defined_var;
var 0..27: X_INTRODUCED_61_:: is_defined_var;
var 0..82: X_INTRODUCED_62_:: is_defined_var;
var 0..83: X_INTRODUCED_63_:: is_defined_var;
var 0..74: X_INTRODUCED_64_:: is_defined_var;
var 0..74: X_INTRODUCED_65_:: is_defined_var;
var 0..97: X_INTRODUCED_66_:: is_defined_var;
var 0..71: X_INTRODUCED_67_:: is_defined_var;
var 0..96: X_INTRODUCED_68_:: is_defined_var;
var 0..70: X_INTRODUCED_69_:: is_defined_var;
var 0..2: X_INTRODUCED_70_:: is_defined_var;
var 0..55: X_INTRODUCED_71_:: is_defined_var;
var 0..73: X_INTRODUCED_72_:: is_defined_var;
var 0..69: X_INTRODUCED_73_:: is_defined_var;
var 0..61: X_INTRODUCED_74_:: is_defined_var;
var 0..46: X_INTRODUCED_75_:: is_defined_var;
var 0..96: X_INTRODUCED_76_:: is_defined_var;
var 0..59: X_INTRODUCED_77_:: is_defined_var;
var 0..83: X_INTRODUCED_78_:: is_defined_var;
var 0..4: X_INTRODUCED_79_:: is_defined_var;
var 0..42: X_INTRODUCED_80_:: is_defined_var;
var 0..22: X_INTRODUCED_81_:: is_defined_var;
var 0..29: X_INTRODUCED_82_:: is_defined_var;
var 0..67: X_INTRODUCED_83_:: is_defined_var;
var 0..59: X_INTRODUCED_84_:: is_defined_var;
var 0..5: X_INTRODUCED_86_:: is_defined_var;
var 0..73: X_INTRODUCED_87_:: is_defined_var;
var 0..59: X_INTRODUCED_88_:: is_defined_var;
var 0..56: X_INTRODUCED_89_:: is_defined_var;
var 0..10: X_INTRODUCED_90_:: is_defined_var;
var 0..73: X_INTRODUCED_91_:: is_defined_var;
var 0..13: X_INTRODUCED_92_:: is_defined_var;
var 0..43: X_INTRODUCED_93_:: is_defined_var;
var 0..96: X_INTRODUCED_94_:: is_defined_var;
var 0..93: X_INTRODUCED_95_:: is_defined_var;
var 0..35: X_INTRODUCED_96_:: is_defined_var;
var 0..63: X_INTRODUCED_97_:: is_defined_var;
var 0..85: X_INTRODUCED_98_:: is_defined_var;
var 0..46: X_INTRODUCED_99_:: is_defined_var;
var 0..47: X_INTRODUCED_100_:: is_defined_var;
var 0..65: X_INTRODUCED_101_:: is_defined_var;
var 0..55: X_INTRODUCED_102_:: is_defined_var;
var 0..71: X_INTRODUCED_103_:: is_defined_var;
var 0..95: X_INTRODUCED_104_:: is_defined_var;
var 1..2813: total:: is_defined_var:: output_var;
var bool: X_INTRODUCED_106_ ::var_is_introduced :: is_defined_var;
var 0..1: X_INTRODUCED_107_ ::var_is_introduced :: is_defined_var;
var bool: X_INTRODUCED_108_ ::var_is_introduced :: is_defined_var;
var 0..1: X_INTRODUCED_109_ ::var_is_introduced :: is_defined_var;
var bool: X_INTRODUCED_110_ ::var_is_introduced :: is_defined_var;
var 0..1: X_INTRODUCED_111_ ::var_is_introduced :: is_defined_var;
var bool: X_INTRODUCED_112_ ::var_is_introduced :: is_defined_var;
var 0..1: X_INTRODUCED_113_ ::var_is_introduced :: is_defined_var;
var bool: X_INTRODUCED_114_ ::var_is_introduced :: is_defined_var;
var 0..1: X_INTRODUCED_115_ ::var_is_introduced :: is_defined_var;
var bool: X_INTRODUCED_133_ ::var_is_introduced :: is_defined_var;
var 0..1: X_INTRODUCED_134_ ::var_is_introduced :: is_defined_var;
var bool: X_INTRODUCED_135_ ::var_is_introduced :: is_defined_var;
var 0..1: X_INTRODUCED_136_ ::var_is_introduced :: is_defined_var;
var bool: X_INTRODUCED_137_ ::var_is_introduced :: is_defined_var;
var 0..1: X_INTRODUCED_138_ ::var_is_introduced :: is_defined_var;
var bool: X_INTRODUCED_139_ ::var_is_introduced :: is_defined_var;
var 0..1: X_INTRODUCED_140_ ::var_is_introduced :: is_defined_var;
var bool: X_INTRODUCED_141_ ::var_is_introduced :: is_defined_var;
var 0..1: X_INTRODUCED_142_ ::var_is_introduced :: is_defined_var;
var bool: X_INTRODUCED_159_ ::var_is_introduced :: is_defined_var;
var 0..1: X_INTRODUCED_160_ ::var_is_introduced :: is_defined_var;
var bool: X_INTRODUCED_161_ ::var_is_introduced :: is_defined_var;
var 0..1: X_INTRODUCED_162_ ::var_is_introduced :: is_defined_var;
var bool: X_INTRODUCED_163_ ::var_is_introduced :: is_defined_var;
var 0..1: X_INTRODUCED_164_ ::var_is_introduced :: is_defined_var;
var bool: X_INTRODUCED_165_ ::var_is_introduced :: is_defined_var;
var 0..1: X_INTRODUCED_166_ ::var_is_introduced :: is_defined_var;
var bool: X_INTRODUCED_167_ ::var_is_introduced :: is_defined_var;
var 0..1: X_INTRODUCED_168_ ::var_is_introduced :: is_defined_var;
var bool: X_INTRODUCED_183_ ::var_is_introduced :: is_defined_var;
var 0..1: X_INTRODUCED_184_ ::var_is_introduced :: is_defined_var;
var bool: X_INTRODUCED_185_ ::var_is_introduced :: is_defined_var;
var 0..1: X_INTRODUCED_186_ ::var_is_introduced :: is_defined_var;
var bool: X_INTRODUCED_187_ ::var_is_introduced :: is_defined_var;
var 0..1: X_INTRODUCED_188_ ::var_is_introduced :: is_defined_var;
var bool: X_INTRODUCED_189_ ::var_is_introduced :: is_defined_var;
var 0..1: X_INTRODUCED_190_ ::var_is_introduced :: is_defined_var;
var bool: X_INTRODUCED_191_ ::var_is_introduced :: is_defined_var;
var 0..1: X_INTRODUCED_192_ ::var_is_introduced :: is_defined_var;
var bool: X_INTRODUCED_209_ ::var_is_introduced :: is_defined_var;
var 0..1: X_INTRODUCED_210_ ::var_is_introduced :: is_defined_var;
var bool: X_INTRODUCED_211_ ::var_is_introduced :: is_defined_var;
var 0..1: X_INTRODUCED_212_ ::var_is_introduced :: is_defined_var;
var bool: X_INTRODUCED_213_ ::var_is_introduced :: is_defined_var;
var 0..1: X_INTRODUCED_214_ ::var_is_introduced :: is_defined_var;
var bool: X_INTRODUCED_215_ ::var_is_introduced :: is_defined_var;
var 0..1: X_INTRODUCED_216_ ::var_is_introduced :: is_defined_var;
var bool: X_INTRODUCED_217_ ::var_is_introduced :: is_defined_var;
var 0..1: X_INTRODUCED_218_ ::var_is_introduced :: is_defined_var;
var bool: X_INTRODUCED_231_ ::var_is_introduced :: is_defined_var;
var 0..1: X_INTRODUCED_232_ ::var_is_introduced :: is_defined_var;
var bool: X_INTRODUCED_233_ ::var_is_introduced :: is_defined_var;
var 0..1: X_INTRODUCED_234_ ::var_is_introduced :: is_defined_var;
var bool: X_INTRODUCED_235_ ::var_is_introduced :: is_defined_var;
var 0..1: X_INTRODUCED_236_ ::var_is_introduced :: is_defined_var;
var bool: X_INTRODUCED_237_ ::var_is_introduced :: is_defined_var;
var 0..1: X_INTRODUCED_238_ ::var_is_introduced :: is_defined_var;
var bool: X_INTRODUCED_239_ ::var_is_introduced :: is_defined_var;
var 0..1: X_INTRODUCED_240_ ::var_is_introduced :: is_defined_var;
var bool: X_INTRODUCED_255_ ::var_is_introduced :: is_defined_var;
var 0..1: X_INTRODUCED_256_ ::var_is_introduced :: is_defined_var;
var bool: X_INTRODUCED_257_ ::var_is_introduced :: is_defined_var;
var 0..1: X_INTRODUCED_258_ ::var_is_introduced :: is_defined_var;
var bool: X_INTRODUCED_259_ ::var_is_introduced :: is_defined_var;
var 0..1: X_INTRODUCED_260_ ::var_is_introduced :: is_defined_var;
var bool: X_INTRODUCED_261_ ::var_is_introduced :: is_defined_var;
var 0..1: X_INTRODUCED_262_ ::var_is_introduced :: is_defined_var;
var bool: X_INTRODUCED_263_ ::var_is_introduced :: is_defined_var;
var 0..1: X_INTRODUCED_264_ ::var_is_introduced :: is_defined_var;
var bool: X_INTRODUCED_274_ ::var_is_introduced :: is_defined_var;
var 0..1: X_INTRODUCED_275_ ::var_is_introduced :: is_defined_var;
var bool: X_INTRODUCED_276_ ::var_is_introduced :: is_defined_var;
var 0..1: X_INTRODUCED_277_ ::var_is_introduced :: is_defined_var;
var bool: X_INTRODUCED_278_ ::var_is_introduced :: is_defined_var;
var 0..1: X_INTRODUCED_279_ ::var_is_introduced :: is_defined_var;
var bool: X_INTRODUCED_280_ ::var_is_introduced :: is_defined_var;
var 0..1: X_INTRODUCED_281_ ::var_is_introduced :: is_defined_var;
var bool: X_INTRODUCED_282_ ::var_is_introduced :: is_defined_var;
var 0..1: X_INTRODUCED_283_ ::var_is_introduced :: is_defined_var;
var bool: X_INTRODUCED_296_ ::var_is_introduced :: is_defined_var;
var 0..1: X_INTRODUCED_297_ ::var_is_introduced :: is_defined_var;
var bool: X_INTRODUCED_298_ ::var_is_introduced :: is_defined_var;
var 0..1: X_INTRODUCED_299_ ::var_is_introduced :: is_defined_var;
var bool: X_INTRODUCED_300_ ::var_is_introduced :: is_defined_var;
var 0..1: X_INTRODUCED_301_ ::var_is_introduced :: is_defined_var;
var bool: X_INTRODUCED_302_ ::var_is_introduced :: is_defined_var;
var 0..1: X_INTRODUCED_303_ ::var_is_introduced :: is_defined_var;
var bool: X_INTRODUCED_304_ ::var_is_introduced :: is_defined_var;
var 0..1: X_INTRODUCED_305_ ::var_is_introduced :: is_defined_var;
var bool: X_INTRODUCED_320_ ::var_is_introduced :: is_defined_var;
var 0..1: X_INTRODUCED_321_ ::var_is_introduced :: is_defined_var;
var bool: X_INTRODUCED_322_ ::var_is_introduced :: is_defined_var;
var 0..1: X_INTRODUCED_323_ ::var_is_introduced :: is_defined_var;
var bool: X_INTRODUCED_324_ ::var_is_introduced :: is_defined_var;
var 0..1: X_INTRODUCED_325_ ::var_is_introduced :: is_defined_var;
var bool: X_INTRODUCED_326_ ::var_is_introduced :: is_defined_var;
var 0..1: X_INTRODUCED_327_ ::var_is_introduced :: is_defined_var;
var bool: X_INTRODUCED_328_ ::var_is_introduced :: is_defined_var;
var 0..1: X_INTRODUCED_329_ ::var_is_introduced :: is_defined_var;
var bool: X_INTRODUCED_348_ ::var_is_introduced :: is_defined_var;
var bool: X_INTRODUCED_349_ ::var_is_introduced :: is_defined_var;
var bool: X_INTRODUCED_351_ ::var_is_introduced :: is_defined_var;
var bool: X_INTRODUCED_352_ ::var_is_introduced :: is_defined_var;
var bool: X_INTRODUCED_354_ ::var_is_introduced :: is_defined_var;
var bool: X_INTRODUCED_355_ ::var_is_introduced :: is_defined_var;
var bool: X_INTRODUCED_357_ ::var_is_introduced :: is_defined_var;
var bool: X_INTRODUCED_358_ ::var_is_introduced :: is_defined_var;
var bool: X_INTRODUCED_360_ ::var_is_introduced :: is_defined_var;
var bool: X_INTRODUCED_361_ ::var_is_introduced :: is_defined_var;
var bool: X_INTRODUCED_363_ ::var_is_introduced :: is_defined_var;
var bool: X_INTRODUCED_364_ ::var_is_introduced :: is_defined_var;
var bool: X_INTRODUCED_366_ ::var_is_introduced :: is_defined_var;
var bool: X_INTRODUCED_367_ ::var_is_introduced :: is_defined_var;
var bool: X_INTRODUCED_369_ ::var_is_introduced :: is_defined_var;
var bool: X_INTRODUCED_370_ ::var_is_introduced :: is_defined_var;
var bool: X_INTRODUCED_372_ ::var_is_introduced :: is_defined_var;
var bool: X_INTRODUCED_373_ ::var_is_introduced :: is_defined_var;
var bool: X_INTRODUCED_375_ ::var_is_introduced :: is_defined_var;
var bool: X_INTRODUCED_376_ ::var_is_introduced :: is_defined_var;
array [1..5] of var int: coutFixe:: output_array([1..5]) = [X_INTRODUCED_0_,X_INTRODUCED_1_,X_INTRODUCED_2_,X_INTRODUCED_3_,X_INTRODUCED_4_];
array [1..50] of var int: cout_maintenance = [X_INTRODUCED_55_,X_INTRODUCED_56_,X_INTRODUCED_57_,X_INTRODUCED_58_,X_INTRODUCED_59_,X_INTRODUCED_60_,X_INTRODUCED_61_,X_INTRODUCED_62_,X_INTRODUCED_63_,X_INTRODUCED_64_,X_INTRODUCED_65_,X_INTRODUCED_66_,X_INTRODUCED_67_,X_INTRODUCED_68_,X_INTRODUCED_69_,X_INTRODUCED_70_,X_INTRODUCED_71_,X_INTRODUCED_72_,X_INTRODUCED_73_,X_INTRODUCED_74_,X_INTRODUCED_75_,X_INTRODUCED_76_,X_INTRODUCED_77_,X_INTRODUCED_78_,X_INTRODUCED_79_,X_INTRODUCED_80_,X_INTRODUCED_81_,X_INTRODUCED_82_,X_INTRODUCED_83_,X_INTRODUCED_84_,X_INTRODUCED_35_,X_INTRODUCED_86_,X_INTRODUCED_87_,X_INTRODUCED_88_,X_INTRODUCED_89_,X_INTRODUCED_90_,X_INTRODUCED_91_,X_INTRODUCED_92_,X_INTRODUCED_93_,X_INTRODUCED_94_,X_INTRODUCED_95_,X_INTRODUCED_96_,X_INTRODUCED_97_,X_INTRODUCED_98_,X_INTRODUCED_99_,X_INTRODUCED_100_,X_INTRODUCED_101_,X_INTRODUCED_102_,X_INTRODUCED_103_,X_INTRODUCED_104_];
array [1..56] of var int: X_INTRODUCED_383_ ::var_is_introduced  = [total,X_INTRODUCED_55_,X_INTRODUCED_56_,X_INTRODUCED_57_,X_INTRODUCED_58_,X_INTRODUCED_59_,X_INTRODUCED_60_,X_INTRODUCED_61_,X_INTRODUCED_62_,X_INTRODUCED_63_,X_INTRODUCED_64_,X_INTRODUCED_65_,X_INTRODUCED_66_,X_INTRODUCED_67_,X_INTRODUCED_68_,X_INTRODUCED_69_,X_INTRODUCED_70_,X_INTRODUCED_71_,X_INTRODUCED_72_,X_INTRODUCED_73_,X_INTRODUCED_74_,X_INTRODUCED_75_,X_INTRODUCED_76_,X_INTRODUCED_77_,X_INTRODUCED_78_,X_INTRODUCED_79_,X_INTRODUCED_80_,X_INTRODUCED_81_,X_INTRODUCED_82_,X_INTRODUCED_83_,X_INTRODUCED_84_,X_INTRODUCED_35_,X_INTRODUCED_86_,X_INTRODUCED_87_,X_INTRODUCED_88_,X_INTRODUCED_89_,X_INTRODUCED_90_,X_INTRODUCED_91_,X_INTRODUCED_92_,X_INTRODUCED_93_,X_INTRODUCED_94_,X_INTRODUCED_95_,X_INTRODUCED_96_,X_INTRODUCED_97_,X_INTRODUCED_98_,X_INTRODUCED_99_,X_INTRODUCED_100_,X_INTRODUCED_101_,X_INTRODUCED_102_,X_INTRODUCED_103_,X_INTRODUCED_104_,X_INTRODUCED_0_,X_INTRODUCED_1_,X_INTRODUCED_2_,X_INTRODUCED_3_,X_INTRODUCED_4_];
constraint int_lin_eq(X_INTRODUCED_117_,[X_INTRODUCED_107_,X_INTRODUCED_109_,X_INTRODUCED_111_,X_INTRODUCED_113_,X_INTRODUCED_115_],1);
constraint int_lin_eq(X_INTRODUCED_120_,[X_INTRODUCED_55_,X_INTRODUCED_5_],0):: defines_var(X_INTRODUCED_55_);
constraint int_lin_eq(X_INTRODUCED_123_,[X_INTRODUCED_56_,X_INTRODUCED_6_],0):: defines_var(X_INTRODUCED_56_);
constraint int_lin_eq(X_INTRODUCED_126_,[X_INTRODUCED_57_,X_INTRODUCED_7_],0):: defines_var(X_INTRODUCED_57_);
constraint int_lin_eq(X_INTRODUCED_129_,[X_INTRODUCED_58_,X_INTRODUCED_8_],0):: defines_var(X_INTRODUCED_58_);
constraint int_lin_eq(X_INTRODUCED_132_,[X_INTRODUCED_59_,X_INTRODUCED_9_],0):: defines_var(X_INTRODUCED_59_);
constraint int_lin_eq(X_INTRODUCED_117_,[X_INTRODUCED_134_,X_INTRODUCED_136_,X_INTRODUCED_138_,X_INTRODUCED_140_,X_INTRODUCED_142_],1);
constraint int_lin_eq(X_INTRODUCED_146_,[X_INTRODUCED_60_,X_INTRODUCED_10_],0):: defines_var(X_INTRODUCED_60_);
constraint int_lin_eq(X_INTRODUCED_149_,[X_INTRODUCED_61_,X_INTRODUCED_11_],0):: defines_var(X_INTRODUCED_61_);
constraint int_lin_eq(X_INTRODUCED_152_,[X_INTRODUCED_62_,X_INTRODUCED_12_],0):: defines_var(X_INTRODUCED_62_);
constraint int_lin_eq(X_INTRODUCED_155_,[X_INTRODUCED_63_,X_INTRODUCED_13_],0):: defines_var(X_INTRODUCED_63_);
constraint int_lin_eq(X_INTRODUCED_158_,[X_INTRODUCED_64_,X_INTRODUCED_14_],0):: defines_var(X_INTRODUCED_64_);
constraint int_lin_eq(X_INTRODUCED_117_,[X_INTRODUCED_160_,X_INTRODUCED_162_,X_INTRODUCED_164_,X_INTRODUCED_166_,X_INTRODUCED_168_],1);
constraint int_lin_eq(X_INTRODUCED_158_,[X_INTRODUCED_65_,X_INTRODUCED_15_],0):: defines_var(X_INTRODUCED_65_);
constraint int_lin_eq(X_INTRODUCED_173_,[X_INTRODUCED_66_,X_INTRODUCED_16_],0):: defines_var(X_INTRODUCED_66_);
constraint int_lin_eq(X_INTRODUCED_176_,[X_INTRODUCED_67_,X_INTRODUCED_17_],0):: defines_var(X_INTRODUCED_67_);
constraint int_lin_eq(X_INTRODUCED_179_,[X_INTRODUCED_68_,X_INTRODUCED_18_],0):: defines_var(X_INTRODUCED_68_);
constraint int_lin_eq(X_INTRODUCED_182_,[X_INTRODUCED_69_,X_INTRODUCED_19_],0):: defines_var(X_INTRODUCED_69_);
constraint int_lin_eq(X_INTRODUCED_117_,[X_INTRODUCED_184_,X_INTRODUCED_186_,X_INTRODUCED_188_,X_INTRODUCED_190_,X_INTRODUCED_192_],1);
constraint int_lin_eq(X_INTRODUCED_196_,[X_INTRODUCED_70_,X_INTRODUCED_20_],0):: defines_var(X_INTRODUCED_70_);
constraint int_lin_eq(X_INTRODUCED_199_,[X_INTRODUCED_71_,X_INTRODUCED_21_],0):: defines_var(X_INTRODUCED_71_);
constraint int_lin_eq(X_INTRODUCED_202_,[X_INTRODUCED_72_,X_INTRODUCED_22_],0):: defines_var(X_INTRODUCED_72_);
constraint int_lin_eq(X_INTRODUCED_205_,[X_INTRODUCED_73_,X_INTRODUCED_23_],0):: defines_var(X_INTRODUCED_73_);
constraint int_lin_eq(X_INTRODUCED_208_,[X_INTRODUCED_74_,X_INTRODUCED_24_],0):: defines_var(X_INTRODUCED_74_);
constraint int_lin_eq(X_INTRODUCED_117_,[X_INTRODUCED_210_,X_INTRODUCED_212_,X_INTRODUCED_214_,X_INTRODUCED_216_,X_INTRODUCED_218_],1);
constraint int_lin_eq(X_INTRODUCED_222_,[X_INTRODUCED_75_,X_INTRODUCED_25_],0):: defines_var(X_INTRODUCED_75_);
constraint int_lin_eq(X_INTRODUCED_179_,[X_INTRODUCED_76_,X_INTRODUCED_26_],0):: defines_var(X_INTRODUCED_76_);
constraint int_lin_eq(X_INTRODUCED_226_,[X_INTRODUCED_77_,X_INTRODUCED_27_],0):: defines_var(X_INTRODUCED_77_);
constraint int_lin_eq(X_INTRODUCED_155_,[X_INTRODUCED_78_,X_INTRODUCED_28_],0):: defines_var(X_INTRODUCED_78_);
constraint int_lin_eq(X_INTRODUCED_230_,[X_INTRODUCED_79_,X_INTRODUCED_29_],0):: defines_var(X_INTRODUCED_79_);
constraint int_lin_eq(X_INTRODUCED_117_,[X_INTRODUCED_232_,X_INTRODUCED_234_,X_INTRODUCED_236_,X_INTRODUCED_238_,X_INTRODUCED_240_],1);
constraint int_lin_eq(X_INTRODUCED_244_,[X_INTRODUCED_80_,X_INTRODUCED_30_],0):: defines_var(X_INTRODUCED_80_);
constraint int_lin_eq(X_INTRODUCED_247_,[X_INTRODUCED_81_,X_INTRODUCED_31_],0):: defines_var(X_INTRODUCED_81_);
constraint int_lin_eq(X_INTRODUCED_250_,[X_INTRODUCED_82_,X_INTRODUCED_32_],0):: defines_var(X_INTRODUCED_82_);
constraint int_lin_eq(X_INTRODUCED_253_,[X_INTRODUCED_83_,X_INTRODUCED_33_],0):: defines_var(X_INTRODUCED_83_);
constraint int_lin_eq(X_INTRODUCED_226_,[X_INTRODUCED_84_,X_INTRODUCED_34_],0):: defines_var(X_INTRODUCED_84_);
constraint int_lin_eq(X_INTRODUCED_117_,[X_INTRODUCED_256_,X_INTRODUCED_258_,X_INTRODUCED_260_,X_INTRODUCED_262_,X_INTRODUCED_264_],1);
constraint int_lin_eq(X_INTRODUCED_268_,[X_INTRODUCED_86_,X_INTRODUCED_36_],0):: defines_var(X_INTRODUCED_86_);
constraint int_lin_eq(X_INTRODUCED_202_,[X_INTRODUCED_87_,X_INTRODUCED_37_],0):: defines_var(X_INTRODUCED_87_);
constraint int_lin_eq(X_INTRODUCED_226_,[X_INTRODUCED_88_,X_INTRODUCED_38_],0):: defines_var(X_INTRODUCED_88_);
constraint int_lin_eq(X_INTRODUCED_273_,[X_INTRODUCED_89_,X_INTRODUCED_39_],0):: defines_var(X_INTRODUCED_89_);
constraint int_lin_eq(X_INTRODUCED_117_,[X_INTRODUCED_275_,X_INTRODUCED_277_,X_INTRODUCED_279_,X_INTRODUCED_281_,X_INTRODUCED_283_],1);
constraint int_lin_eq(X_INTRODUCED_287_,[X_INTRODUCED_90_,X_INTRODUCED_40_],0):: defines_var(X_INTRODUCED_90_);
constraint int_lin_eq(X_INTRODUCED_202_,[X_INTRODUCED_91_,X_INTRODUCED_41_],0):: defines_var(X_INTRODUCED_91_);
constraint int_lin_eq(X_INTRODUCED_291_,[X_INTRODUCED_92_,X_INTRODUCED_42_],0):: defines_var(X_INTRODUCED_92_);
constraint int_lin_eq(X_INTRODUCED_294_,[X_INTRODUCED_93_,X_INTRODUCED_43_],0):: defines_var(X_INTRODUCED_93_);
constraint int_lin_eq(X_INTRODUCED_179_,[X_INTRODUCED_94_,X_INTRODUCED_44_],0):: defines_var(X_INTRODUCED_94_);
constraint int_lin_eq(X_INTRODUCED_117_,[X_INTRODUCED_297_,X_INTRODUCED_299_,X_INTRODUCED_301_,X_INTRODUCED_303_,X_INTRODUCED_305_],1);
constraint int_lin_eq(X_INTRODUCED_309_,[X_INTRODUCED_95_,X_INTRODUCED_45_],0):: defines_var(X_INTRODUCED_95_);
constraint int_lin_eq(X_INTRODUCED_312_,[X_INTRODUCED_96_,X_INTRODUCED_46_],0):: defines_var(X_INTRODUCED_96_);
constraint int_lin_eq(X_INTRODUCED_315_,[X_INTRODUCED_97_,X_INTRODUCED_47_],0):: defines_var(X_INTRODUCED_97_);
constraint int_lin_eq(X_INTRODUCED_318_,[X_INTRODUCED_98_,X_INTRODUCED_48_],0):: defines_var(X_INTRODUCED_98_);
constraint int_lin_eq(X_INTRODUCED_222_,[X_INTRODUCED_99_,X_INTRODUCED_49_],0):: defines_var(X_INTRODUCED_99_);
constraint int_lin_eq(X_INTRODUCED_117_,[X_INTRODUCED_321_,X_INTRODUCED_323_,X_INTRODUCED_325_,X_INTRODUCED_327_,X_INTRODUCED_329_],1);
constraint int_lin_eq(X_INTRODUCED_333_,[X_INTRODUCED_100_,X_INTRODUCED_50_],0):: defines_var(X_INTRODUCED_100_);
constraint int_lin_eq(X_INTRODUCED_336_,[X_INTRODUCED_101_,X_INTRODUCED_51_],0):: defines_var(X_INTRODUCED_101_);
constraint int_lin_eq(X_INTRODUCED_199_,[X_INTRODUCED_102_,X_INTRODUCED_52_],0):: defines_var(X_INTRODUCED_102_);
constraint int_lin_eq(X_INTRODUCED_176_,[X_INTRODUCED_103_,X_INTRODUCED_53_],0):: defines_var(X_INTRODUCED_103_);
constraint int_lin_eq(X_INTRODUCED_341_,[X_INTRODUCED_104_,X_INTRODUCED_54_],0):: defines_var(X_INTRODUCED_104_);
constraint int_lin_le(X_INTRODUCED_343_,[X_INTRODUCED_107_,X_INTRODUCED_134_,X_INTRODUCED_160_,X_INTRODUCED_184_,X_INTRODUCED_210_,X_INTRODUCED_232_,X_INTRODUCED_256_,X_INTRODUCED_275_,X_INTRODUCED_297_,X_INTRODUCED_321_],1);
constraint int_lin_le(X_INTRODUCED_343_,[X_INTRODUCED_109_,X_INTRODUCED_136_,X_INTRODUCED_162_,X_INTRODUCED_186_,X_INTRODUCED_212_,X_INTRODUCED_234_,X_INTRODUCED_258_,X_INTRODUCED_277_,X_INTRODUCED_299_,X_INTRODUCED_323_],4);
constraint int_lin_le(X_INTRODUCED_343_,[X_INTRODUCED_111_,X_INTRODUCED_138_,X_INTRODUCED_164_,X_INTRODUCED_188_,X_INTRODUCED_214_,X_INTRODUCED_236_,X_INTRODUCED_260_,X_INTRODUCED_279_,X_INTRODUCED_301_,X_INTRODUCED_325_],2);
constraint int_lin_le(X_INTRODUCED_343_,[X_INTRODUCED_113_,X_INTRODUCED_140_,X_INTRODUCED_166_,X_INTRODUCED_190_,X_INTRODUCED_216_,X_INTRODUCED_238_,X_INTRODUCED_262_,X_INTRODUCED_281_,X_INTRODUCED_303_,X_INTRODUCED_327_],1);
constraint int_lin_le(X_INTRODUCED_343_,[X_INTRODUCED_115_,X_INTRODUCED_142_,X_INTRODUCED_168_,X_INTRODUCED_192_,X_INTRODUCED_218_,X_INTRODUCED_240_,X_INTRODUCED_264_,X_INTRODUCED_283_,X_INTRODUCED_305_,X_INTRODUCED_329_],3);
constraint int_lin_eq(X_INTRODUCED_384_,X_INTRODUCED_383_,0):: defines_var(total);
constraint int_eq_reif(X_INTRODUCED_5_,1,X_INTRODUCED_106_):: defines_var(X_INTRODUCED_106_);
constraint bool2int(X_INTRODUCED_106_,X_INTRODUCED_107_):: defines_var(X_INTRODUCED_107_);
constraint int_eq_reif(X_INTRODUCED_6_,1,X_INTRODUCED_108_):: defines_var(X_INTRODUCED_108_);
constraint bool2int(X_INTRODUCED_108_,X_INTRODUCED_109_):: defines_var(X_INTRODUCED_109_);
constraint int_eq_reif(X_INTRODUCED_7_,1,X_INTRODUCED_110_):: defines_var(X_INTRODUCED_110_);
constraint bool2int(X_INTRODUCED_110_,X_INTRODUCED_111_):: defines_var(X_INTRODUCED_111_);
constraint int_eq_reif(X_INTRODUCED_8_,1,X_INTRODUCED_112_):: defines_var(X_INTRODUCED_112_);
constraint bool2int(X_INTRODUCED_112_,X_INTRODUCED_113_):: defines_var(X_INTRODUCED_113_);
constraint int_eq_reif(X_INTRODUCED_9_,1,X_INTRODUCED_114_):: defines_var(X_INTRODUCED_114_);
constraint bool2int(X_INTRODUCED_114_,X_INTRODUCED_115_):: defines_var(X_INTRODUCED_115_);
constraint int_eq_reif(X_INTRODUCED_10_,1,X_INTRODUCED_133_):: defines_var(X_INTRODUCED_133_);
constraint bool2int(X_INTRODUCED_133_,X_INTRODUCED_134_):: defines_var(X_INTRODUCED_134_);
constraint int_eq_reif(X_INTRODUCED_11_,1,X_INTRODUCED_135_):: defines_var(X_INTRODUCED_135_);
constraint bool2int(X_INTRODUCED_135_,X_INTRODUCED_136_):: defines_var(X_INTRODUCED_136_);
constraint int_eq_reif(X_INTRODUCED_12_,1,X_INTRODUCED_137_):: defines_var(X_INTRODUCED_137_);
constraint bool2int(X_INTRODUCED_137_,X_INTRODUCED_138_):: defines_var(X_INTRODUCED_138_);
constraint int_eq_reif(X_INTRODUCED_13_,1,X_INTRODUCED_139_):: defines_var(X_INTRODUCED_139_);
constraint bool2int(X_INTRODUCED_139_,X_INTRODUCED_140_):: defines_var(X_INTRODUCED_140_);
constraint int_eq_reif(X_INTRODUCED_14_,1,X_INTRODUCED_141_):: defines_var(X_INTRODUCED_141_);
constraint bool2int(X_INTRODUCED_141_,X_INTRODUCED_142_):: defines_var(X_INTRODUCED_142_);
constraint int_eq_reif(X_INTRODUCED_15_,1,X_INTRODUCED_159_):: defines_var(X_INTRODUCED_159_);
constraint bool2int(X_INTRODUCED_159_,X_INTRODUCED_160_):: defines_var(X_INTRODUCED_160_);
constraint int_eq_reif(X_INTRODUCED_16_,1,X_INTRODUCED_161_):: defines_var(X_INTRODUCED_161_);
constraint bool2int(X_INTRODUCED_161_,X_INTRODUCED_162_):: defines_var(X_INTRODUCED_162_);
constraint int_eq_reif(X_INTRODUCED_17_,1,X_INTRODUCED_163_):: defines_var(X_INTRODUCED_163_);
constraint bool2int(X_INTRODUCED_163_,X_INTRODUCED_164_):: defines_var(X_INTRODUCED_164_);
constraint int_eq_reif(X_INTRODUCED_18_,1,X_INTRODUCED_165_):: defines_var(X_INTRODUCED_165_);
constraint bool2int(X_INTRODUCED_165_,X_INTRODUCED_166_):: defines_var(X_INTRODUCED_166_);
constraint int_eq_reif(X_INTRODUCED_19_,1,X_INTRODUCED_167_):: defines_var(X_INTRODUCED_167_);
constraint bool2int(X_INTRODUCED_167_,X_INTRODUCED_168_):: defines_var(X_INTRODUCED_168_);
constraint int_eq_reif(X_INTRODUCED_20_,1,X_INTRODUCED_183_):: defines_var(X_INTRODUCED_183_);
constraint bool2int(X_INTRODUCED_183_,X_INTRODUCED_184_):: defines_var(X_INTRODUCED_184_);
constraint int_eq_reif(X_INTRODUCED_21_,1,X_INTRODUCED_185_):: defines_var(X_INTRODUCED_185_);
constraint bool2int(X_INTRODUCED_185_,X_INTRODUCED_186_):: defines_var(X_INTRODUCED_186_);
constraint int_eq_reif(X_INTRODUCED_22_,1,X_INTRODUCED_187_):: defines_var(X_INTRODUCED_187_);
constraint bool2int(X_INTRODUCED_187_,X_INTRODUCED_188_):: defines_var(X_INTRODUCED_188_);
constraint int_eq_reif(X_INTRODUCED_23_,1,X_INTRODUCED_189_):: defines_var(X_INTRODUCED_189_);
constraint bool2int(X_INTRODUCED_189_,X_INTRODUCED_190_):: defines_var(X_INTRODUCED_190_);
constraint int_eq_reif(X_INTRODUCED_24_,1,X_INTRODUCED_191_):: defines_var(X_INTRODUCED_191_);
constraint bool2int(X_INTRODUCED_191_,X_INTRODUCED_192_):: defines_var(X_INTRODUCED_192_);
constraint int_eq_reif(X_INTRODUCED_25_,1,X_INTRODUCED_209_):: defines_var(X_INTRODUCED_209_);
constraint bool2int(X_INTRODUCED_209_,X_INTRODUCED_210_):: defines_var(X_INTRODUCED_210_);
constraint int_eq_reif(X_INTRODUCED_26_,1,X_INTRODUCED_211_):: defines_var(X_INTRODUCED_211_);
constraint bool2int(X_INTRODUCED_211_,X_INTRODUCED_212_):: defines_var(X_INTRODUCED_212_);
constraint int_eq_reif(X_INTRODUCED_27_,1,X_INTRODUCED_213_):: defines_var(X_INTRODUCED_213_);
constraint bool2int(X_INTRODUCED_213_,X_INTRODUCED_214_):: defines_var(X_INTRODUCED_214_);
constraint int_eq_reif(X_INTRODUCED_28_,1,X_INTRODUCED_215_):: defines_var(X_INTRODUCED_215_);
constraint bool2int(X_INTRODUCED_215_,X_INTRODUCED_216_):: defines_var(X_INTRODUCED_216_);
constraint int_eq_reif(X_INTRODUCED_29_,1,X_INTRODUCED_217_):: defines_var(X_INTRODUCED_217_);
constraint bool2int(X_INTRODUCED_217_,X_INTRODUCED_218_):: defines_var(X_INTRODUCED_218_);
constraint int_eq_reif(X_INTRODUCED_30_,1,X_INTRODUCED_231_):: defines_var(X_INTRODUCED_231_);
constraint bool2int(X_INTRODUCED_231_,X_INTRODUCED_232_):: defines_var(X_INTRODUCED_232_);
constraint int_eq_reif(X_INTRODUCED_31_,1,X_INTRODUCED_233_):: defines_var(X_INTRODUCED_233_);
constraint bool2int(X_INTRODUCED_233_,X_INTRODUCED_234_):: defines_var(X_INTRODUCED_234_);
constraint int_eq_reif(X_INTRODUCED_32_,1,X_INTRODUCED_235_):: defines_var(X_INTRODUCED_235_);
constraint bool2int(X_INTRODUCED_235_,X_INTRODUCED_236_):: defines_var(X_INTRODUCED_236_);
constraint int_eq_reif(X_INTRODUCED_33_,1,X_INTRODUCED_237_):: defines_var(X_INTRODUCED_237_);
constraint bool2int(X_INTRODUCED_237_,X_INTRODUCED_238_):: defines_var(X_INTRODUCED_238_);
constraint int_eq_reif(X_INTRODUCED_34_,1,X_INTRODUCED_239_):: defines_var(X_INTRODUCED_239_);
constraint bool2int(X_INTRODUCED_239_,X_INTRODUCED_240_):: defines_var(X_INTRODUCED_240_);
constraint int_eq_reif(X_INTRODUCED_35_,1,X_INTRODUCED_255_):: defines_var(X_INTRODUCED_255_);
constraint bool2int(X_INTRODUCED_255_,X_INTRODUCED_256_):: defines_var(X_INTRODUCED_256_);
constraint int_eq_reif(X_INTRODUCED_36_,1,X_INTRODUCED_257_):: defines_var(X_INTRODUCED_257_);
constraint bool2int(X_INTRODUCED_257_,X_INTRODUCED_258_):: defines_var(X_INTRODUCED_258_);
constraint int_eq_reif(X_INTRODUCED_37_,1,X_INTRODUCED_259_):: defines_var(X_INTRODUCED_259_);
constraint bool2int(X_INTRODUCED_259_,X_INTRODUCED_260_):: defines_var(X_INTRODUCED_260_);
constraint int_eq_reif(X_INTRODUCED_38_,1,X_INTRODUCED_261_):: defines_var(X_INTRODUCED_261_);
constraint bool2int(X_INTRODUCED_261_,X_INTRODUCED_262_):: defines_var(X_INTRODUCED_262_);
constraint int_eq_reif(X_INTRODUCED_39_,1,X_INTRODUCED_263_):: defines_var(X_INTRODUCED_263_);
constraint bool2int(X_INTRODUCED_263_,X_INTRODUCED_264_):: defines_var(X_INTRODUCED_264_);
constraint int_eq_reif(X_INTRODUCED_40_,1,X_INTRODUCED_274_):: defines_var(X_INTRODUCED_274_);
constraint bool2int(X_INTRODUCED_274_,X_INTRODUCED_275_):: defines_var(X_INTRODUCED_275_);
constraint int_eq_reif(X_INTRODUCED_41_,1,X_INTRODUCED_276_):: defines_var(X_INTRODUCED_276_);
constraint bool2int(X_INTRODUCED_276_,X_INTRODUCED_277_):: defines_var(X_INTRODUCED_277_);
constraint int_eq_reif(X_INTRODUCED_42_,1,X_INTRODUCED_278_):: defines_var(X_INTRODUCED_278_);
constraint bool2int(X_INTRODUCED_278_,X_INTRODUCED_279_):: defines_var(X_INTRODUCED_279_);
constraint int_eq_reif(X_INTRODUCED_43_,1,X_INTRODUCED_280_):: defines_var(X_INTRODUCED_280_);
constraint bool2int(X_INTRODUCED_280_,X_INTRODUCED_281_):: defines_var(X_INTRODUCED_281_);
constraint int_eq_reif(X_INTRODUCED_44_,1,X_INTRODUCED_282_):: defines_var(X_INTRODUCED_282_);
constraint bool2int(X_INTRODUCED_282_,X_INTRODUCED_283_):: defines_var(X_INTRODUCED_283_);
constraint int_eq_reif(X_INTRODUCED_45_,1,X_INTRODUCED_296_):: defines_var(X_INTRODUCED_296_);
constraint bool2int(X_INTRODUCED_296_,X_INTRODUCED_297_):: defines_var(X_INTRODUCED_297_);
constraint int_eq_reif(X_INTRODUCED_46_,1,X_INTRODUCED_298_):: defines_var(X_INTRODUCED_298_);
constraint bool2int(X_INTRODUCED_298_,X_INTRODUCED_299_):: defines_var(X_INTRODUCED_299_);
constraint int_eq_reif(X_INTRODUCED_47_,1,X_INTRODUCED_300_):: defines_var(X_INTRODUCED_300_);
constraint bool2int(X_INTRODUCED_300_,X_INTRODUCED_301_):: defines_var(X_INTRODUCED_301_);
constraint int_eq_reif(X_INTRODUCED_48_,1,X_INTRODUCED_302_):: defines_var(X_INTRODUCED_302_);
constraint bool2int(X_INTRODUCED_302_,X_INTRODUCED_303_):: defines_var(X_INTRODUCED_303_);
constraint int_eq_reif(X_INTRODUCED_49_,1,X_INTRODUCED_304_):: defines_var(X_INTRODUCED_304_);
constraint bool2int(X_INTRODUCED_304_,X_INTRODUCED_305_):: defines_var(X_INTRODUCED_305_);
constraint int_eq_reif(X_INTRODUCED_50_,1,X_INTRODUCED_320_):: defines_var(X_INTRODUCED_320_);
constraint bool2int(X_INTRODUCED_320_,X_INTRODUCED_321_):: defines_var(X_INTRODUCED_321_);
constraint int_eq_reif(X_INTRODUCED_51_,1,X_INTRODUCED_322_):: defines_var(X_INTRODUCED_322_);
constraint bool2int(X_INTRODUCED_322_,X_INTRODUCED_323_):: defines_var(X_INTRODUCED_323_);
constraint int_eq_reif(X_INTRODUCED_52_,1,X_INTRODUCED_324_):: defines_var(X_INTRODUCED_324_);
constraint bool2int(X_INTRODUCED_324_,X_INTRODUCED_325_):: defines_var(X_INTRODUCED_325_);
constraint int_eq_reif(X_INTRODUCED_53_,1,X_INTRODUCED_326_):: defines_var(X_INTRODUCED_326_);
constraint bool2int(X_INTRODUCED_326_,X_INTRODUCED_327_):: defines_var(X_INTRODUCED_327_);
constraint int_eq_reif(X_INTRODUCED_54_,1,X_INTRODUCED_328_):: defines_var(X_INTRODUCED_328_);
constraint bool2int(X_INTRODUCED_328_,X_INTRODUCED_329_):: defines_var(X_INTRODUCED_329_);
constraint int_eq_imp(X_INTRODUCED_0_,30,X_INTRODUCED_348_):: defines_var(X_INTRODUCED_348_);
constraint int_lin_le_reif(X_INTRODUCED_343_,[X_INTRODUCED_107_,X_INTRODUCED_134_,X_INTRODUCED_160_,X_INTRODUCED_184_,X_INTRODUCED_210_,X_INTRODUCED_232_,X_INTRODUCED_256_,X_INTRODUCED_275_,X_INTRODUCED_297_,X_INTRODUCED_321_],0,X_INTRODUCED_349_):: defines_var(X_INTRODUCED_349_);
constraint array_bool_or([X_INTRODUCED_348_,X_INTRODUCED_349_],true);
constraint int_eq_imp(X_INTRODUCED_1_,30,X_INTRODUCED_351_):: defines_var(X_INTRODUCED_351_);
constraint int_lin_le_reif(X_INTRODUCED_343_,[X_INTRODUCED_109_,X_INTRODUCED_136_,X_INTRODUCED_162_,X_INTRODUCED_186_,X_INTRODUCED_212_,X_INTRODUCED_234_,X_INTRODUCED_258_,X_INTRODUCED_277_,X_INTRODUCED_299_,X_INTRODUCED_323_],0,X_INTRODUCED_352_):: defines_var(X_INTRODUCED_352_);
constraint array_bool_or([X_INTRODUCED_351_,X_INTRODUCED_352_],true);
constraint int_eq_imp(X_INTRODUCED_2_,30,X_INTRODUCED_354_):: defines_var(X_INTRODUCED_354_);
constraint int_lin_le_reif(X_INTRODUCED_343_,[X_INTRODUCED_111_,X_INTRODUCED_138_,X_INTRODUCED_164_,X_INTRODUCED_188_,X_INTRODUCED_214_,X_INTRODUCED_236_,X_INTRODUCED_260_,X_INTRODUCED_279_,X_INTRODUCED_301_,X_INTRODUCED_325_],0,X_INTRODUCED_355_):: defines_var(X_INTRODUCED_355_);
constraint array_bool_or([X_INTRODUCED_354_,X_INTRODUCED_355_],true);
constraint int_eq_imp(X_INTRODUCED_3_,30,X_INTRODUCED_357_):: defines_var(X_INTRODUCED_357_);
constraint int_lin_le_reif(X_INTRODUCED_343_,[X_INTRODUCED_113_,X_INTRODUCED_140_,X_INTRODUCED_166_,X_INTRODUCED_190_,X_INTRODUCED_216_,X_INTRODUCED_238_,X_INTRODUCED_262_,X_INTRODUCED_281_,X_INTRODUCED_303_,X_INTRODUCED_327_],0,X_INTRODUCED_358_):: defines_var(X_INTRODUCED_358_);
constraint array_bool_or([X_INTRODUCED_357_,X_INTRODUCED_358_],true);
constraint int_eq_imp(X_INTRODUCED_4_,30,X_INTRODUCED_360_):: defines_var(X_INTRODUCED_360_);
constraint int_lin_le_reif(X_INTRODUCED_343_,[X_INTRODUCED_115_,X_INTRODUCED_142_,X_INTRODUCED_168_,X_INTRODUCED_192_,X_INTRODUCED_218_,X_INTRODUCED_240_,X_INTRODUCED_264_,X_INTRODUCED_283_,X_INTRODUCED_305_,X_INTRODUCED_329_],0,X_INTRODUCED_361_):: defines_var(X_INTRODUCED_361_);
constraint array_bool_or([X_INTRODUCED_360_,X_INTRODUCED_361_],true);
constraint int_eq_imp(X_INTRODUCED_0_,0,X_INTRODUCED_363_):: defines_var(X_INTRODUCED_363_);
constraint int_lin_ne_reif(X_INTRODUCED_343_,[X_INTRODUCED_107_,X_INTRODUCED_134_,X_INTRODUCED_160_,X_INTRODUCED_184_,X_INTRODUCED_210_,X_INTRODUCED_232_,X_INTRODUCED_256_,X_INTRODUCED_275_,X_INTRODUCED_297_,X_INTRODUCED_321_],0,X_INTRODUCED_364_):: defines_var(X_INTRODUCED_364_);
constraint array_bool_or([X_INTRODUCED_363_,X_INTRODUCED_364_],true);
constraint int_eq_imp(X_INTRODUCED_1_,0,X_INTRODUCED_366_):: defines_var(X_INTRODUCED_366_);
constraint int_lin_ne_reif(X_INTRODUCED_343_,[X_INTRODUCED_109_,X_INTRODUCED_136_,X_INTRODUCED_162_,X_INTRODUCED_186_,X_INTRODUCED_212_,X_INTRODUCED_234_,X_INTRODUCED_258_,X_INTRODUCED_277_,X_INTRODUCED_299_,X_INTRODUCED_323_],0,X_INTRODUCED_367_):: defines_var(X_INTRODUCED_367_);
constraint array_bool_or([X_INTRODUCED_366_,X_INTRODUCED_367_],true);
constraint int_eq_imp(X_INTRODUCED_2_,0,X_INTRODUCED_369_):: defines_var(X_INTRODUCED_369_);
constraint int_lin_ne_reif(X_INTRODUCED_343_,[X_INTRODUCED_111_,X_INTRODUCED_138_,X_INTRODUCED_164_,X_INTRODUCED_188_,X_INTRODUCED_214_,X_INTRODUCED_236_,X_INTRODUCED_260_,X_INTRODUCED_279_,X_INTRODUCED_301_,X_INTRODUCED_325_],0,X_INTRODUCED_370_):: defines_var(X_INTRODUCED_370_);
constraint array_bool_or([X_INTRODUCED_369_,X_INTRODUCED_370_],true);
constraint int_eq_imp(X_INTRODUCED_3_,0,X_INTRODUCED_372_):: defines_var(X_INTRODUCED_372_);
constraint int_lin_ne_reif(X_INTRODUCED_343_,[X_INTRODUCED_113_,X_INTRODUCED_140_,X_INTRODUCED_166_,X_INTRODUCED_190_,X_INTRODUCED_216_,X_INTRODUCED_238_,X_INTRODUCED_262_,X_INTRODUCED_281_,X_INTRODUCED_303_,X_INTRODUCED_327_],0,X_INTRODUCED_373_):: defines_var(X_INTRODUCED_373_);
constraint array_bool_or([X_INTRODUCED_372_,X_INTRODUCED_373_],true);
constraint int_eq_imp(X_INTRODUCED_4_,0,X_INTRODUCED_375_):: defines_var(X_INTRODUCED_375_);
constraint int_lin_ne_reif(X_INTRODUCED_343_,[X_INTRODUCED_115_,X_INTRODUCED_142_,X_INTRODUCED_168_,X_INTRODUCED_192_,X_INTRODUCED_218_,X_INTRODUCED_240_,X_INTRODUCED_264_,X_INTRODUCED_283_,X_INTRODUCED_305_,X_INTRODUCED_329_],0,X_INTRODUCED_376_):: defines_var(X_INTRODUCED_376_);
constraint array_bool_or([X_INTRODUCED_375_,X_INTRODUCED_376_],true);
solve :: seq_search([int_search(cout_maintenance,smallest,indomain_min,complete),int_search(coutFixe,input_order,indomain_min,complete)]) minimize total;
